db/data/177891053331796167613085555253015415439.z3.out
sat
-------------------
1350.954831561
